     Program PWSCF v.6.5 starts on  6Feb2021 at 16: 6:26

     K-points division:     npool     =      16
     R & G space division:  proc/nbgrp/npool/nimage =      10
     Waiting for input...
     Reading input from standard input

     Current dimensions of program PWSCF are:
     Max number of different atomic species (ntypx) = 10
     Max number of k-points (npk) =  40000
     Max angular momentum in pseudopotentials (lmaxx) =  3

     IMPORTANT: XC functional enforced from input :
     Exchange-correlation= PBESOL
                           (   1   4  10   8   0   0   0)
     Any further DFT definition will be discarded
     Please, verify this is what you really want

     Found symmetry operation: I + ( -0.5000  0.0000  0.0000)
     This is a supercell, fractional translations are disabled

     Title:
     bto

     bravais-lattice index     =            0
     lattice parameter (alat)  =      15.9802  a.u.
     unit-cell volume          =    3889.4799 (a.u.)^3
     number of atoms/cell      =           40
     number of atomic types    =            4
     number of electrons       =       320.00
     number of Kohn-Sham states=          160
     kinetic-energy cutoff     =      50.0000  Ry
     charge density cutoff     =     200.0000  Ry
     convergence threshold     =      1.0E-09
     mixing beta               =       0.7000
     number of iterations used =            8  plain     mixing
     Exchange-correlation= PBESOL
                           (   1   4  10   8   0   0   0)
     nstep                     =       100000

     celldm(1)=  15.980154  celldm(2)=   0.000000  celldm(3)=   0.000000
     celldm(4)=   0.000000  celldm(5)=   0.000000  celldm(6)=   0.000000

     crystal axes: (cart. coord. in units of alat)
               a(1) = (   1.000000   0.000000   0.000000 )
               a(2) = (   0.000000   0.978165   0.000000 )
               a(3) = (   0.000000   0.000000   0.974398 )

     reciprocal axes: (cart. coord. in units 2 pi/alat)
               b(1) = (  1.000000  0.000000  0.000000 )
               b(2) = (  0.000000  1.022322  0.000000 )
               b(3) = (  0.000000  0.000000  1.026275 )

     PseudoPot. # 1 for Ba read from file:
     ./ba.upf
     MD5 check sum: 569c1dde556b1c81f66e1af894da4ae7
     Pseudo is Norm-conserving, Zval = 10.0
     Generated by new atomic code, or converted to UPF format
     Using radial grid of 1179 points,  3 beta functions with:
                l(1) =   0
                l(2) =   1
                l(3) =   2

     PseudoPot. # 2 for O  read from file:
     ./o.upf
     MD5 check sum: 6afdad5913fe366ac5de9e6b2d735f4a
     Pseudo is Norm-conserving, Zval =  6.0
     Generated by new atomic code, or converted to UPF format
     Using radial grid of 1130 points,  1 beta functions with:
                l(1) =   1

     PseudoPot. # 3 for Zr read from file:
     ./zr.upf
     MD5 check sum: 4323fbb0604ce3758ff2f6a711565820
     Pseudo is Norm-conserving, Zval = 12.0
     Generated by new atomic code, or converted to UPF format
     Using radial grid of 1171 points,  3 beta functions with:
                l(1) =   0
                l(2) =   1
                l(3) =   2

     PseudoPot. # 4 for Ca read from file:
     ./ca.upf
     MD5 check sum: 9d40c44c50ef0ff3e83632165cb52c7c
     Pseudo is Norm-conserving, Zval = 10.0
     Generated by new atomic code, or converted to UPF format
     Using radial grid of 1153 points,  3 beta functions with:
                l(1) =   0
                l(2) =   1
                l(3) =   2

     atomic species   valence    mass     pseudopotential
        Ba            10.00   137.32700     Ba( 1.00)
        O              6.00    15.99940     O ( 1.00)
        Zr            12.00    47.86700     Zr( 1.00)
        Ca            10.00    40.08700     Ca( 1.00)

     No symmetry found

                                    s                        frac. trans.

      isym =  1     identity

 cryst.   s( 1) = (     1          0          0      )
                  (     0          1          0      )
                  (     0          0          1      )

 cart.    s( 1) = (  1.0000000  0.0000000  0.0000000 )
                  (  0.0000000  1.0000000  0.0000000 )
                  (  0.0000000  0.0000000  1.0000000 )

   Cartesian axes

     site n.     atom                  positions (alat units)
         1           Ca  tau(   1) = (   0.0752624  -0.0000000  -0.0000000  )
         2           Ca  tau(   2) = (   0.5748478   0.4890827   0.0000000  )
         3           Ca  tau(   3) = (   0.0748477   0.4890827   0.0000000  )
         4           Ca  tau(   4) = (   0.5752624   0.0000000   0.0000000  )
         5           Ba  tau(   5) = (   0.0126359  -0.0000000   0.4871989  )
         6           Ba  tau(   6) = (   0.0126389   0.4890827   0.4871989  )
         7           Ba  tau(   7) = (   0.5126359  -0.0000000   0.4871989  )
         8           Ba  tau(   8) = (   0.5126389   0.4890827   0.4871989  )
         9           Zr  tau(   9) = (   0.2614936   0.2446177   0.2404718  )
        10           Zr  tau(  10) = (   0.2614936   0.2446177   0.7339259  )
        11           Zr  tau(  11) = (   0.2614936   0.7335478   0.2404718  )
        12           Zr  tau(  12) = (   0.2614936   0.7335478   0.7339259  )
        13           Zr  tau(  13) = (   0.7614936   0.2446177   0.2404719  )
        14           Zr  tau(  14) = (   0.7614936   0.2446177   0.7339259  )
        15           Zr  tau(  15) = (   0.7614936   0.7335478   0.2404719  )
        16           Zr  tau(  16) = (   0.7614936   0.7335478   0.7339259  )
        17           O   tau(  17) = (   0.2332562  -0.0000000   0.2307389  )
        18           O   tau(  18) = (   0.2332562   0.0000000   0.7436588  )
        19           O   tau(  19) = (   0.2330049   0.4890827   0.2304624  )
        20           O   tau(  20) = (   0.2330048   0.4890827   0.7439354  )
        21           O   tau(  21) = (   0.7332561   0.0000000   0.2307390  )
        22           O   tau(  22) = (   0.7332561   0.0000000   0.7436588  )
        23           O   tau(  23) = (   0.7330049   0.4890827   0.2304624  )
        24           O   tau(  24) = (   0.7330049   0.4890827   0.7439354  )
        25           O   tau(  25) = (   0.2156885   0.2444256  -0.0000000  )
        26           O   tau(  26) = (   0.2432021   0.2446750   0.4871989  )
        27           O   tau(  27) = (   0.2156885   0.7337399  -0.0000000  )
        28           O   tau(  28) = (   0.2432020   0.7334904   0.4871989  )
        29           O   tau(  29) = (   0.7156887   0.2444256   0.0000000  )
        30           O   tau(  30) = (   0.7432019   0.2446750   0.4871989  )
        31           O   tau(  31) = (   0.7156887   0.7337399   0.0000000  )
        32           O   tau(  32) = (   0.7432019   0.7334905   0.4871989  )
        33           O   tau(  33) = (  -0.0029157   0.2447323   0.2461502  )
        34           O   tau(  34) = (  -0.0029157   0.2447322   0.7282476  )
        35           O   tau(  35) = (  -0.0029157   0.7334332   0.2461502  )
        36           O   tau(  36) = (  -0.0029157   0.7334333   0.7282476  )
        37           O   tau(  37) = (   0.4970843   0.2447323   0.2461499  )
        38           O   tau(  38) = (   0.4970843   0.2447323   0.7282478  )
        39           O   tau(  39) = (   0.4970843   0.7334332   0.2461500  )
        40           O   tau(  40) = (   0.4970843   0.7334332   0.7282478  )

   Crystallographic axes

     site n.     atom                  positions (cryst. coord.)
         1           Ca  tau(   1) = (  0.0752624 -0.0000000 -0.0000000  )
         2           Ca  tau(   2) = (  0.5748478  0.5000000  0.0000000  )
         3           Ca  tau(   3) = (  0.0748477  0.5000000  0.0000000  )
         4           Ca  tau(   4) = (  0.5752624  0.0000000  0.0000000  )
         5           Ba  tau(   5) = (  0.0126359 -0.0000000  0.5000000  )
         6           Ba  tau(   6) = (  0.0126389  0.5000000  0.5000000  )
         7           Ba  tau(   7) = (  0.5126359 -0.0000000  0.5000000  )
         8           Ba  tau(   8) = (  0.5126389  0.5000000  0.5000000  )
         9           Zr  tau(   9) = (  0.2614936  0.2500780  0.2467902  )
        10           Zr  tau(  10) = (  0.2614936  0.2500780  0.7532098  )
        11           Zr  tau(  11) = (  0.2614936  0.7499220  0.2467902  )
        12           Zr  tau(  12) = (  0.2614936  0.7499220  0.7532098  )
        13           Zr  tau(  13) = (  0.7614936  0.2500780  0.2467902  )
        14           Zr  tau(  14) = (  0.7614936  0.2500780  0.7532098  )
        15           Zr  tau(  15) = (  0.7614936  0.7499220  0.2467902  )
        16           Zr  tau(  16) = (  0.7614936  0.7499220  0.7532098  )
        17           O   tau(  17) = (  0.2332562 -0.0000000  0.2368016  )
        18           O   tau(  18) = (  0.2332562  0.0000000  0.7631984  )
        19           O   tau(  19) = (  0.2330049  0.5000000  0.2365177  )
        20           O   tau(  20) = (  0.2330048  0.5000000  0.7634822  )
        21           O   tau(  21) = (  0.7332561  0.0000000  0.2368016  )
        22           O   tau(  22) = (  0.7332561  0.0000000  0.7631984  )
        23           O   tau(  23) = (  0.7330049  0.5000000  0.2365178  )
        24           O   tau(  24) = (  0.7330049  0.5000000  0.7634822  )
        25           O   tau(  25) = (  0.2156885  0.2498816 -0.0000000  )
        26           O   tau(  26) = (  0.2432021  0.2501367  0.5000000  )
        27           O   tau(  27) = (  0.2156885  0.7501184 -0.0000000  )
        28           O   tau(  28) = (  0.2432020  0.7498633  0.5000000  )
        29           O   tau(  29) = (  0.7156887  0.2498816  0.0000000  )
        30           O   tau(  30) = (  0.7432019  0.2501366  0.5000000  )
        31           O   tau(  31) = (  0.7156887  0.7501184  0.0000000  )
        32           O   tau(  32) = (  0.7432019  0.7498634  0.5000000  )
        33           O   tau(  33) = ( -0.0029157  0.2501951  0.2526178  )
        34           O   tau(  34) = ( -0.0029157  0.2501951  0.7473822  )
        35           O   tau(  35) = ( -0.0029157  0.7498049  0.2526177  )
        36           O   tau(  36) = ( -0.0029157  0.7498049  0.7473823  )
        37           O   tau(  37) = (  0.4970843  0.2501952  0.2526175  )
        38           O   tau(  38) = (  0.4970843  0.2501952  0.7473825  )
        39           O   tau(  39) = (  0.4970843  0.7498048  0.2526175  )
        40           O   tau(  40) = (  0.4970843  0.7498048  0.7473825  )

     number of k points=    36
                       cart. coord. in units 2pi/alat
        k(    1) = (   0.0000000   0.0000000   0.0000000), wk =   0.0312500
        k(    2) = (   0.0000000   0.0000000   0.2565687), wk =   0.0625000
        k(    3) = (   0.0000000   0.0000000  -0.5131375), wk =   0.0312500
        k(    4) = (   0.0000000   0.2555805   0.0000000), wk =   0.0625000
        k(    5) = (   0.0000000   0.2555805   0.2565687), wk =   0.0625000
        k(    6) = (   0.0000000   0.2555805  -0.5131375), wk =   0.0625000
[...]
     atom   20 type  2   force =     0.91962870   -0.00000059   -1.52890073
     atom   21 type  2   force =     0.91768366   -0.00000026    1.53146088
     atom   22 type  2   force =     0.91767835   -0.00000021   -1.53146059
     atom   23 type  2   force =     0.91963048    0.00000026    1.52890092
     atom   24 type  2   force =     0.91963573    0.00000021   -1.52890053
     atom   25 type  2   force =     0.87985978   -0.00052924   -0.00000098
     atom   26 type  2   force =    -0.00803575    0.00138498    0.00000085
     atom   27 type  2   force =     0.87986470    0.00052925   -0.00000112
     atom   28 type  2   force =    -0.00803767   -0.00138498    0.00000076
     atom   29 type  2   force =     0.87988039   -0.00053031   -0.00000019
     atom   30 type  2   force =    -0.00805062    0.00138540    0.00000042
     atom   31 type  2   force =     0.87987646    0.00053032   -0.00000024
     atom   32 type  2   force =    -0.00804896   -0.00138540    0.00000041
     atom   33 type  2   force =     0.87860783   -0.00028055    0.57246229
     atom   34 type  2   force =     0.87860851   -0.00028149   -0.57246138
     atom   35 type  2   force =     0.87860698    0.00028055    0.57246226
     atom   36 type  2   force =     0.87860761    0.00028150   -0.57246137
     atom   37 type  2   force =     0.87860604   -0.00027867    0.57245134
     atom   38 type  2   force =     0.87860600   -0.00027749   -0.57245149
     atom   39 type  2   force =     0.87860679    0.00027868    0.57245215
     atom   40 type  2   force =     0.87860669    0.00027748   -0.57245222
     The local contribution  to forces
     atom    1 type  4   force =     7.13958393   -0.00000274    0.00000048
     atom    2 type  4   force =     7.13956938   -0.00000128   -0.00000136
     atom    3 type  4   force =     7.13957202    0.00000272    0.00000528
     atom    4 type  4   force =     7.13958027    0.00000125    0.00000250
     atom    5 type  1   force =     1.48586955    0.00000088    0.00000093
     atom    6 type  1   force =     1.48456264   -0.00000088   -0.00000095
     atom    7 type  1   force =     1.48586988   -0.00000032   -0.00000040
     atom    8 type  1   force =     1.48456250    0.00000035    0.00000078
     atom    9 type  3   force =    -1.95741740    0.00083769   -1.84176203
     atom   10 type  3   force =    -1.95741589    0.00083661    1.84176110
     atom   11 type  3   force =    -1.95741698   -0.00083767   -1.84176355
     atom   12 type  3   force =    -1.95741590   -0.00083669    1.84176252
     atom   13 type  3   force =    -1.95741053    0.00083777   -1.84176325
     atom   14 type  3   force =    -1.95741113    0.00083796    1.84176274
     atom   15 type  3   force =    -1.95741092   -0.00083759   -1.84176372
     atom   16 type  3   force =    -1.95741146   -0.00083793    1.84176315
     atom   17 type  2   force =    -0.92282141   -0.00000032   -1.50578432
     atom   18 type  2   force =    -0.92282549   -0.00000053    1.50578356
     atom   19 type  2   force =    -0.92461459    0.00000033   -1.50328326
     atom   20 type  2   force =    -0.92460820    0.00000056    1.50328246
     atom   21 type  2   force =    -0.92281902   -0.00000007   -1.50578617
     atom   22 type  2   force =    -0.92281410    0.00000006    1.50578590
     atom   23 type  2   force =    -0.92460908   -0.00000008   -1.50328260
     atom   24 type  2   force =    -0.92461429   -0.00000007    1.50328226
     atom   25 type  2   force =    -0.92237799    0.00057393    0.00000121
     atom   26 type  2   force =    -0.01847546   -0.00129513   -0.00000098
     atom   27 type  2   force =    -0.92238241   -0.00057395    0.00000108
     atom   28 type  2   force =    -0.01847321    0.00129507   -0.00000069
     atom   29 type  2   force =    -0.92239677    0.00057504    0.00000007
     atom   30 type  2   force =    -0.01845992   -0.00129549   -0.00000026
     atom   31 type  2   force =    -0.92239326   -0.00057492    0.00000017
     atom   32 type  2   force =    -0.01846185    0.00129552   -0.00000040
     atom   33 type  2   force =    -0.66696368    0.00028214   -0.59498923
     atom   34 type  2   force =    -0.66696478    0.00028297    0.59498835
     atom   35 type  2   force =    -0.66696343   -0.00028209   -0.59498931
     atom   36 type  2   force =    -0.66696409   -0.00028298    0.59498837
     atom   37 type  2   force =    -0.66696336    0.00028032   -0.59497880
     atom   38 type  2   force =    -0.66696292    0.00027913    0.59497893
     atom   39 type  2   force =    -0.66696353   -0.00028024   -0.59497960
     atom   40 type  2   force =    -0.66696336   -0.00027911    0.59497962
     The core correction contribution to forces
     atom    1 type  4   force =     0.00000000    0.00000000    0.00000000
     atom    2 type  4   force =     0.00000000    0.00000000    0.00000000
     atom    3 type  4   force =     0.00000000    0.00000000    0.00000000
     atom    4 type  4   force =     0.00000000    0.00000000    0.00000000
     atom    5 type  1   force =     0.00000000    0.00000000    0.00000000
     atom    6 type  1   force =     0.00000000    0.00000000    0.00000000
     atom    7 type  1   force =     0.00000000    0.00000000    0.00000000
     atom    8 type  1   force =     0.00000000    0.00000000    0.00000000
     atom    9 type  3   force =     0.00000000    0.00000000    0.00000000
     atom   10 type  3   force =     0.00000000    0.00000000    0.00000000
     atom   11 type  3   force =     0.00000000    0.00000000    0.00000000
     atom   12 type  3   force =     0.00000000    0.00000000    0.00000000
     atom   13 type  3   force =     0.00000000    0.00000000    0.00000000
     atom   14 type  3   force =     0.00000000    0.00000000    0.00000000
     atom   15 type  3   force =     0.00000000    0.00000000    0.00000000
     atom   16 type  3   force =     0.00000000    0.00000000    0.00000000
     atom   17 type  2   force =     0.00000000    0.00000000    0.00000000
     atom   18 type  2   force =     0.00000000    0.00000000    0.00000000
     atom   19 type  2   force =     0.00000000    0.00000000    0.00000000
     atom   20 type  2   force =     0.00000000    0.00000000    0.00000000
     atom   21 type  2   force =     0.00000000    0.00000000    0.00000000
     atom   22 type  2   force =     0.00000000    0.00000000    0.00000000
     atom   23 type  2   force =     0.00000000    0.00000000    0.00000000
     atom   24 type  2   force =     0.00000000    0.00000000    0.00000000
     atom   25 type  2   force =     0.00000000    0.00000000    0.00000000
     atom   26 type  2   force =     0.00000000    0.00000000    0.00000000
     atom   27 type  2   force =     0.00000000    0.00000000    0.00000000
     atom   28 type  2   force =     0.00000000    0.00000000    0.00000000
     atom   29 type  2   force =     0.00000000    0.00000000    0.00000000
     atom   30 type  2   force =     0.00000000    0.00000000    0.00000000
     atom   31 type  2   force =     0.00000000    0.00000000    0.00000000
     atom   32 type  2   force =     0.00000000    0.00000000    0.00000000
     atom   33 type  2   force =     0.00000000    0.00000000    0.00000000
     atom   34 type  2   force =     0.00000000    0.00000000    0.00000000
     atom   35 type  2   force =     0.00000000    0.00000000    0.00000000
     atom   36 type  2   force =     0.00000000    0.00000000    0.00000000
     atom   37 type  2   force =     0.00000000    0.00000000    0.00000000
     atom   38 type  2   force =     0.00000000    0.00000000    0.00000000
     atom   39 type  2   force =     0.00000000    0.00000000    0.00000000
     atom   40 type  2   force =     0.00000000    0.00000000    0.00000000
     The Hubbard contrib.    to forces
     atom    1 type  4   force =     0.00000000    0.00000000    0.00000000
     atom    2 type  4   force =     0.00000000    0.00000000    0.00000000
     atom    3 type  4   force =     0.00000000    0.00000000    0.00000000
     atom    4 type  4   force =     0.00000000    0.00000000    0.00000000
     atom    5 type  1   force =     0.00000000    0.00000000    0.00000000
     atom    6 type  1   force =     0.00000000    0.00000000    0.00000000
     atom    7 type  1   force =     0.00000000    0.00000000    0.00000000
     atom    8 type  1   force =     0.00000000    0.00000000    0.00000000
     atom    9 type  3   force =     0.00000000    0.00000000    0.00000000
     atom   10 type  3   force =     0.00000000    0.00000000    0.00000000
     atom   11 type  3   force =     0.00000000    0.00000000    0.00000000
     atom   12 type  3   force =     0.00000000    0.00000000    0.00000000
     atom   13 type  3   force =     0.00000000    0.00000000    0.00000000
     atom   14 type  3   force =     0.00000000    0.00000000    0.00000000
     atom   15 type  3   force =     0.00000000    0.00000000    0.00000000
     atom   16 type  3   force =     0.00000000    0.00000000    0.00000000
     atom   17 type  2   force =     0.00000000    0.00000000    0.00000000
     atom   18 type  2   force =     0.00000000    0.00000000    0.00000000
     atom   19 type  2   force =     0.00000000    0.00000000    0.00000000
     atom   20 type  2   force =     0.00000000    0.00000000    0.00000000
     atom   21 type  2   force =     0.00000000    0.00000000    0.00000000
     atom   22 type  2   force =     0.00000000    0.00000000    0.00000000
     atom   23 type  2   force =     0.00000000    0.00000000    0.00000000
     atom   24 type  2   force =     0.00000000    0.00000000    0.00000000
     atom   25 type  2   force =     0.00000000    0.00000000    0.00000000
     atom   26 type  2   force =     0.00000000    0.00000000    0.00000000
     atom   27 type  2   force =     0.00000000    0.00000000    0.00000000
     atom   28 type  2   force =     0.00000000    0.00000000    0.00000000
     atom   29 type  2   force =     0.00000000    0.00000000    0.00000000
     atom   30 type  2   force =     0.00000000    0.00000000    0.00000000
     atom   31 type  2   force =     0.00000000    0.00000000    0.00000000
     atom   32 type  2   force =     0.00000000    0.00000000    0.00000000
     atom   33 type  2   force =     0.00000000    0.00000000    0.00000000
     atom   34 type  2   force =     0.00000000    0.00000000    0.00000000
     atom   35 type  2   force =     0.00000000    0.00000000    0.00000000
     atom   36 type  2   force =     0.00000000    0.00000000    0.00000000
     atom   37 type  2   force =     0.00000000    0.00000000    0.00000000
     atom   38 type  2   force =     0.00000000    0.00000000    0.00000000
     atom   39 type  2   force =     0.00000000    0.00000000    0.00000000
     atom   40 type  2   force =     0.00000000    0.00000000    0.00000000
     The SCF correction term to forces
     atom    1 type  4   force =     0.00000016    0.00000026   -0.00000003
     atom    2 type  4   force =     0.00000045    0.00000034   -0.00000001
     atom    3 type  4   force =     0.00000029   -0.00000028   -0.00000002
     atom    4 type  4   force =     0.00000030   -0.00000026    0.00000006
     atom    5 type  1   force =     0.00000013   -0.00000014    0.00000008
     atom    6 type  1   force =     0.00000016    0.00000013    0.00000008
     atom    7 type  1   force =     0.00000055    0.00000021   -0.00000014
     atom    8 type  1   force =     0.00000053   -0.00000019   -0.00000010
     atom    9 type  3   force =     0.00000080   -0.00000007    0.00000007
     atom   10 type  3   force =     0.00000024   -0.00000011   -0.00000005
     atom   11 type  3   force =     0.00000007    0.00000007    0.00000003
     atom   12 type  3   force =    -0.00000023    0.00000009   -0.00000008
     atom   13 type  3   force =    -0.00000190   -0.00000023    0.00000001
     atom   14 type  3   force =    -0.00000143   -0.00000006    0.00000002
     atom   15 type  3   force =    -0.00000108    0.00000016   -0.00000013
     atom   16 type  3   force =    -0.00000099    0.00000008    0.00000002
     atom   17 type  2   force =     0.00000020   -0.00000025    0.00000032
     atom   18 type  2   force =     0.00000002   -0.00000002   -0.00000034
     atom   19 type  2   force =     0.00000018    0.00000026    0.00000028
     atom   20 type  2   force =     0.00000002    0.00000004   -0.00000030
     atom   21 type  2   force =    -0.00000078    0.00000032    0.00000035
     atom   22 type  2   force =    -0.00000059    0.00000015   -0.00000033
     atom   23 type  2   force =    -0.00000077   -0.00000023    0.00000023
     atom   24 type  2   force =    -0.00000059   -0.00000016   -0.00000027
     atom   25 type  2   force =     0.00000057    0.00000004   -0.00000026
     atom   26 type  2   force =     0.00000019    0.00000000    0.00000021
     atom   27 type  2   force =     0.00000030   -0.00000002    0.00000005
     atom   28 type  2   force =    -0.00000023    0.00000003    0.00000001
     atom   29 type  2   force =    -0.00000040   -0.00000001    0.00000017
     atom   30 type  2   force =    -0.00000105   -0.00000005   -0.00000017
     atom   31 type  2   force =    -0.00000014   -0.00000009    0.00000012
     atom   32 type  2   force =    -0.00000068    0.00000002    0.00000000
     atom   33 type  2   force =    -0.00000038   -0.00000003    0.00000029
     atom   34 type  2   force =     0.00000006    0.00000000   -0.00000031
     atom   35 type  2   force =     0.00000022   -0.00000001    0.00000034
     atom   36 type  2   force =     0.00000028   -0.00000000   -0.00000029
     atom   37 type  2   force =     0.00000123   -0.00000006    0.00000029
     atom   38 type  2   force =     0.00000079   -0.00000000   -0.00000031
     atom   39 type  2   force =     0.00000066   -0.00000001    0.00000030
     atom   40 type  2   force =     0.00000057   -0.00000001   -0.00000029

     Total force =     0.000098     Total SCF correction =     0.000004

     Computing stress (Cartesian axis) and pressure

          total   stress  (Ry/bohr**3)                   (kbar)     P=       -0.06
   0.00000041   0.00000000   0.00000000            0.06        0.00        0.00
   0.00000000  -0.00000139   0.00000000            0.00       -0.20        0.00
   0.00000000   0.00000000  -0.00000032            0.00        0.00       -0.05

     kinetic stress (kbar)  22375.17     -0.00      0.00
                               -0.00  22304.82     -0.00
                                0.00     -0.00  22308.20

     local   stress (kbar)  14259.82      0.00      0.00
                                0.00   8586.43      0.00
                                0.00      0.00   9186.53

     nonloc. stress (kbar) -14827.07      0.00      0.00
                                0.00 -14789.72      0.00
                                0.00      0.00 -14791.58

     hartree stress (kbar)   4127.58     -0.00     -0.00
                               -0.00   6427.99     -0.00
                               -0.00     -0.00   6178.91

     exc-cor stress (kbar)  -3915.00     -0.00     -0.00
                               -0.00  -3913.23      0.00
                               -0.00      0.00  -3913.65

     corecor stress (kbar)      0.00      0.00      0.00
                                0.00      0.00      0.00
                                0.00      0.00      0.00

     ewald   stress (kbar) -22020.43     -0.00      0.00
                               -0.00 -18616.49      0.00
                                0.00      0.00 -18968.45

     hubbard stress (kbar)      0.00      0.00      0.00
                                0.00      0.00      0.00
                                0.00      0.00      0.00

     london  stress (kbar)      0.00      0.00      0.00
                                0.00      0.00      0.00
                                0.00      0.00      0.00

     DFT-D3  stress (kbar)      0.00      0.00      0.00
                                0.00      0.00      0.00
                                0.00      0.00      0.00

     XDM     stress (kbar)      0.00      0.00      0.00
                                0.00      0.00      0.00
                                0.00      0.00      0.00

     dft-nl  stress (kbar)      0.00      0.00      0.00
                                0.00      0.00      0.00
                                0.00      0.00      0.00

     TS-vdW  stress (kbar)      0.00      0.00      0.00
                                0.00      0.00      0.00
                                0.00      0.00      0.00

     Writing output data file ./bto.save/

     General routines

     Parallel routines

   This run was terminated on:  16:24:51   6Feb2021

   JOB DONE.